data/MCDM/NO_CORR/GEN_FROM_60/10_ITEMS_1000_GEN/K5011W17.KNP.mps
NAME          BLANK   
ROWS
 N  OBJROW
 L  R0000000
COLUMNS
    C0000000  OBJROW     -168.         R0000000  308.        
    C0000001  OBJROW     -451.         R0000000  998.        
    C0000002  OBJROW     -38.          R0000000  447.        
    C0000003  OBJROW     -737.         R0000000  945.        
    C0000004  OBJROW     -115.         R0000000  254.        
    C0000005  OBJROW     -154.         R0000000  165.        
    C0000006  OBJROW     -199.         R0000000  613.        
    C0000007  OBJROW     -107.         R0000000  550.        
    C0000008  OBJROW     -903.         R0000000  67.         
    C0000009  OBJROW     -44.          R0000000  24.         
    C0000010  OBJROW     -969.         R0000000  845.        
RHS
    RHS       R0000000  13735.      
BOUNDS
 BV BOUND     C0000000  1.          
 BV BOUND     C0000001  1.          
 BV BOUND     C0000002  1.          
 BV BOUND     C0000003  1.          
 BV BOUND     C0000004  1.          
 BV BOUND     C0000005  1.          
 BV BOUND     C0000006  1.          
 BV BOUND     C0000007  1.          
 BV BOUND     C0000008  1.          
 BV BOUND     C0000009  1.          
 BV BOUND     C0000010  1.          
ENDATA
