interdiction/MCDM/NO_CORR/GEN_FROM_60/10_ITEMS_1000_GEN/K5011W17.KNP.txt
N 11
M 12
LC 11
LC 12
LC 13
LC 14
LC 15
LC 16
LC 17
LC 18
LC 19
LC 20
LC 21
LR 1
LR 2
LR 3
LR 4
LR 5
LR 6
LR 7
LR 8
LR 9
LR 10
LR 11
LR 12
LO -168
LO -451
LO -38
LO -737
LO -115
LO -154
LO -199
LO -107
LO -903
LO -44
LO -969
OS 1
IC 156
IC 390
IC 91
IC 495
IC 873
IC 39
IC 940
IC 151
IC 562
IC 449
IC 968
IB 2557
